2096, 0, 0, 84, 3
2097, 0, 1, 91, 1
2098, 0, 2, 99, 0
2099, 0, 3, 85, 4
2100, 0, 4, 90, 2
2101, 1, 0, 63, 4
2102, 1, 1, 36, 0
2103, 1, 2, 91, 1
2104, 1, 3, 51, 2
2105, 1, 4, 76, 3
2106, 2, 0, 33, 0
2107, 2, 1, 54, 3
2108, 2, 2, 52, 4
2109, 2, 3, 49, 2
2110, 2, 4, 43, 1
2111, 3, 0, 60, 4
2112, 3, 1, 86, 0
2113, 3, 2, 34, 2
2114, 3, 3, 40, 3
2115, 3, 4, 88, 1
